W=6;
H=7;

MAX_TIME=W*H;
MAX_TRACKS=14;

TARGET=(4,6);

TRAINS=[(5,1,RIGHT),(4,1,RIGHT),(6,1,RIGHT)];
DECOYS=[];

INIT_POS=[
(1,3,STRAIGHT_RL),
(3,3,ESWITCH_L_R_D),
(3,4,STRAIGHT_RL),
(4,1,STRAIGHT_RL),
(4,4,STRAIGHT_RL),
(4,6,STRAIGHT_RL),
(5,1,STRAIGHT_RL),
(5,3,ROCK),
(6,1,STRAIGHT_RL),
(7,3,STRAIGHT_RL),
];
TUNNEL_PAIRS=[
  (1, 1, RIGHT, 7, 6, LEFT),
];

GATES=[
(3,4,1,false),
(4,4,1,true),
];
ACTIVATIONS=[
(1,3,1),
(7,3,1),
];

DSWITCHES=[];
STATIONS=[];
